# Solution for model micodag
# Objective value = 8.42046675943437
s_0_1 0
s_1_0 0
s_0_2 0
s_2_0 0
s_0_4 0
s_4_0 2.5512658880190164e-01
s_1_2 0
s_2_1 3.6036832403786745e-01
s_1_3 0
s_3_1 1.9380981810787912e-01
s_2_4 0
s_4_2 3.7796633404335722e-01
s_4_5 0
s_5_4 2.6482441431839150e+00
s_0_0 6.2916079697471128e-01
s_1_1 6.9319791772634076e-01
s_2_2 5.4908030233900318e-01
s_3_3 7.0082085264742644e-01
s_4_4 2.6482441431839150e+00
s_5_5 1.0357165665650849e+00
Gamma_0_0 7.9319656893780854e-01
Gamma_0_1 0
Gamma_0_2 0
Gamma_0_3 0
Gamma_0_4 0
Gamma_0_5 0
Gamma_1_0 0
Gamma_1_1 8.3258508137387455e-01
Gamma_1_2 0
Gamma_1_3 0
Gamma_1_4 0
Gamma_1_5 0
Gamma_2_0 0
Gamma_2_1 6.0030685822991214e-01
Gamma_2_2 7.4099952924344259e-01
Gamma_2_3 0
Gamma_2_4 0
Gamma_2_5 0
Gamma_3_0 0
Gamma_3_1 4.4023836510222430e-01
Gamma_3_2 0
Gamma_3_3 8.3715043609104478e-01
Gamma_3_4 0
Gamma_3_5 0
Gamma_4_0 -5.0510057295740818e-01
Gamma_4_1 0
Gamma_4_2 -6.1478966650664968e-01
Gamma_4_3 0
Gamma_4_4 7.9445841328582079e-01
Gamma_4_5 0
Gamma_5_0 0
Gamma_5_1 0
Gamma_5_2 0
Gamma_5_3 0
Gamma_5_4 -0.803212003606822
Gamma_5_5 1.0177016097879992e+00
psi_0 2
psi_1 3
psi_2 2
psi_3 0
psi_4 1
psi_5 0
g_0_0 0
g_0_1 0
g_0_2 0
g_0_3 0
g_0_4 0
g_0_5 0
g_1_0 0
g_1_1 0
g_1_2 0
g_1_3 0
g_1_4 0
g_1_5 0
g_2_0 0
g_2_1 1
g_2_2 0
g_2_3 0
g_2_4 0
g_2_5 0
g_3_0 0
g_3_1 1
g_3_2 0
g_3_3 0
g_3_4 0
g_3_5 0
g_4_0 1
g_4_1 0
g_4_2 1
g_4_3 0
g_4_4 0
g_4_5 0
g_5_0 0
g_5_1 0
g_5_2 0
g_5_3 0
g_5_4 1
g_5_5 0
T_0 4.6336841588230016e-01
T_1 3.6643972500218069e-01
T_2 5.9951057797050566e-01
T_3 3.5550298431259364e-01
T_4 4.6018927525581432e-01
T_5 -3.5093522009617573e-02
